/* Cplex Data generated on 2017-12-16 */

k = 80;

b = 40;

AtomicConstraints = {
	 <2, 41>,
	 <2, 49>,
	 <2, 10>,
	 <2, 11>,
	 <2, 50>,
	 <2, 12>,
	 <2, 13>,
	 <2, 14>,
	 <2, 15>,
	 <2, 16>,
	 <2, 17>,
	 <2, 18>,
	 <2, 51>,
	 <2, 52>,
	 <2, 53>,
	 <2, 19>,
	 <2, 20>,
	 <2, 21>,
	 <2, 40>,
	 <2, 77>,
	 <2, 68>,
	 <2, 67>,
	 <2, 70>,
	 <2, 80>,
	 <2, 60>,
	 <2, 61>,
	 <2, 73>,
	 <2, 74>,
	 <2, 75>,
	 <2, 78>,
	 <2, 79>,
	 <2, 76>,
	 <2, 69>,
	 <2, 43>,
	 <3, 41>,
	 <3, 49>,
	 <3, 10>,
	 <3, 11>,
	 <3, 50>,
	 <3, 12>,
	 <3, 13>,
	 <3, 14>,
	 <3, 15>,
	 <3, 16>,
	 <3, 17>,
	 <3, 18>,
	 <3, 51>,
	 <3, 52>,
	 <3, 53>,
	 <3, 19>,
	 <3, 20>,
	 <3, 21>,
	 <3, 40>,
	 <3, 77>,
	 <3, 68>,
	 <3, 67>,
	 <3, 70>,
	 <3, 80>,
	 <3, 60>,
	 <3, 61>,
	 <3, 73>,
	 <3, 74>,
	 <3, 75>,
	 <3, 78>,
	 <3, 79>,
	 <3, 76>,
	 <3, 69>,
	 <3, 43>,
	 <1, 41>,
	 <1, 49>,
	 <1, 10>,
	 <1, 11>,
	 <1, 50>,
	 <1, 12>,
	 <1, 13>,
	 <1, 14>,
	 <1, 15>,
	 <1, 16>,
	 <1, 17>,
	 <1, 18>,
	 <1, 51>,
	 <1, 52>,
	 <1, 53>,
	 <1, 19>,
	 <1, 20>,
	 <1, 21>,
	 <1, 54>,
	 <1, 33>,
	 <1, 34>,
	 <1, 35>,
	 <1, 36>,
	 <1, 37>,
	 <1, 59>,
	 <1, 55>,
	 <1, 56>,
	 <1, 57>,
	 <1, 58>,
	 <1, 71>,
	 <1, 72>,
	 <1, 38>,
	 <1, 39>,
	 <1, 40>,
	 <1, 77>,
	 <1, 68>,
	 <1, 67>,
	 <1, 70>,
	 <1, 80>,
	 <1, 60>,
	 <1, 61>,
	 <1, 73>,
	 <1, 74>,
	 <1, 75>,
	 <1, 78>,
	 <1, 79>,
	 <1, 76>,
	 <1, 69>,
	 <1, 43>,
	 <5, 1>,
	 <5, 4>,
	 <5, 7>,
	 <5, 41>,
	 <5, 49>,
	 <5, 10>,
	 <5, 11>,
	 <5, 50>,
	 <5, 12>,
	 <5, 13>,
	 <5, 14>,
	 <5, 15>,
	 <5, 16>,
	 <5, 17>,
	 <5, 18>,
	 <5, 51>,
	 <5, 52>,
	 <5, 53>,
	 <5, 19>,
	 <5, 20>,
	 <5, 21>,
	 <5, 54>,
	 <5, 33>,
	 <5, 34>,
	 <5, 35>,
	 <5, 36>,
	 <5, 37>,
	 <5, 59>,
	 <5, 55>,
	 <5, 56>,
	 <5, 57>,
	 <5, 58>,
	 <5, 71>,
	 <5, 72>,
	 <5, 38>,
	 <5, 39>,
	 <5, 40>,
	 <5, 77>,
	 <5, 68>,
	 <5, 67>,
	 <5, 70>,
	 <5, 80>,
	 <5, 60>,
	 <5, 61>,
	 <5, 73>,
	 <5, 74>,
	 <5, 75>,
	 <5, 78>,
	 <5, 79>,
	 <5, 76>,
	 <5, 69>,
	 <5, 43>,
	 <6, 1>,
	 <6, 4>,
	 <6, 7>,
	 <6, 44>,
	 <6, 41>,
	 <6, 49>,
	 <6, 10>,
	 <6, 11>,
	 <6, 50>,
	 <6, 12>,
	 <6, 13>,
	 <6, 14>,
	 <6, 15>,
	 <6, 16>,
	 <6, 17>,
	 <6, 18>,
	 <6, 51>,
	 <6, 52>,
	 <6, 53>,
	 <6, 19>,
	 <6, 20>,
	 <6, 21>,
	 <6, 54>,
	 <6, 33>,
	 <6, 34>,
	 <6, 35>,
	 <6, 36>,
	 <6, 37>,
	 <6, 59>,
	 <6, 55>,
	 <6, 56>,
	 <6, 57>,
	 <6, 58>,
	 <6, 71>,
	 <6, 72>,
	 <6, 38>,
	 <6, 39>,
	 <6, 40>,
	 <6, 77>,
	 <6, 68>,
	 <6, 67>,
	 <6, 70>,
	 <6, 80>,
	 <6, 60>,
	 <6, 61>,
	 <6, 73>,
	 <6, 74>,
	 <6, 75>,
	 <6, 78>,
	 <6, 79>,
	 <6, 76>,
	 <6, 69>,
	 <6, 43>,
	 <4, 41>,
	 <4, 49>,
	 <4, 10>,
	 <4, 11>,
	 <4, 50>,
	 <4, 12>,
	 <4, 13>,
	 <4, 14>,
	 <4, 15>,
	 <4, 16>,
	 <4, 17>,
	 <4, 18>,
	 <4, 51>,
	 <4, 52>,
	 <4, 53>,
	 <4, 19>,
	 <4, 20>,
	 <4, 21>,
	 <4, 54>,
	 <4, 33>,
	 <4, 34>,
	 <4, 35>,
	 <4, 36>,
	 <4, 37>,
	 <4, 59>,
	 <4, 55>,
	 <4, 56>,
	 <4, 57>,
	 <4, 58>,
	 <4, 71>,
	 <4, 72>,
	 <4, 38>,
	 <4, 39>,
	 <4, 40>,
	 <4, 77>,
	 <4, 68>,
	 <4, 67>,
	 <4, 70>,
	 <4, 80>,
	 <4, 60>,
	 <4, 61>,
	 <4, 73>,
	 <4, 74>,
	 <4, 75>,
	 <4, 78>,
	 <4, 79>,
	 <4, 76>,
	 <4, 69>,
	 <4, 43>,
	 <8, 4>,
	 <8, 7>,
	 <8, 44>,
	 <8, 42>,
	 <8, 41>,
	 <8, 49>,
	 <8, 10>,
	 <8, 11>,
	 <8, 50>,
	 <8, 12>,
	 <8, 13>,
	 <8, 14>,
	 <8, 15>,
	 <8, 16>,
	 <8, 17>,
	 <8, 18>,
	 <8, 51>,
	 <8, 52>,
	 <8, 53>,
	 <8, 19>,
	 <8, 20>,
	 <8, 21>,
	 <8, 33>,
	 <8, 34>,
	 <8, 35>,
	 <8, 36>,
	 <8, 37>,
	 <8, 59>,
	 <8, 55>,
	 <8, 56>,
	 <8, 57>,
	 <8, 58>,
	 <8, 71>,
	 <8, 72>,
	 <8, 38>,
	 <8, 39>,
	 <8, 40>,
	 <8, 77>,
	 <8, 68>,
	 <8, 67>,
	 <8, 70>,
	 <8, 80>,
	 <8, 60>,
	 <8, 61>,
	 <8, 73>,
	 <8, 74>,
	 <8, 75>,
	 <8, 78>,
	 <8, 79>,
	 <8, 76>,
	 <8, 69>,
	 <8, 43>,
	 <9, 7>,
	 <9, 44>,
	 <9, 42>,
	 <9, 45>,
	 <9, 41>,
	 <9, 49>,
	 <9, 10>,
	 <9, 11>,
	 <9, 50>,
	 <9, 12>,
	 <9, 13>,
	 <9, 14>,
	 <9, 15>,
	 <9, 16>,
	 <9, 17>,
	 <9, 18>,
	 <9, 51>,
	 <9, 52>,
	 <9, 53>,
	 <9, 19>,
	 <9, 20>,
	 <9, 21>,
	 <9, 33>,
	 <9, 34>,
	 <9, 35>,
	 <9, 36>,
	 <9, 37>,
	 <9, 59>,
	 <9, 56>,
	 <9, 57>,
	 <9, 58>,
	 <9, 71>,
	 <9, 72>,
	 <9, 38>,
	 <9, 39>,
	 <9, 40>,
	 <9, 77>,
	 <9, 68>,
	 <9, 67>,
	 <9, 70>,
	 <9, 80>,
	 <9, 60>,
	 <9, 61>,
	 <9, 73>,
	 <9, 74>,
	 <9, 75>,
	 <9, 78>,
	 <9, 79>,
	 <9, 76>,
	 <9, 69>,
	 <9, 43>,
	 <7, 41>,
	 <7, 49>,
	 <7, 10>,
	 <7, 11>,
	 <7, 50>,
	 <7, 12>,
	 <7, 13>,
	 <7, 14>,
	 <7, 15>,
	 <7, 16>,
	 <7, 17>,
	 <7, 18>,
	 <7, 51>,
	 <7, 52>,
	 <7, 53>,
	 <7, 19>,
	 <7, 20>,
	 <7, 21>,
	 <7, 33>,
	 <7, 34>,
	 <7, 35>,
	 <7, 36>,
	 <7, 37>,
	 <7, 59>,
	 <7, 55>,
	 <7, 56>,
	 <7, 57>,
	 <7, 58>,
	 <7, 71>,
	 <7, 72>,
	 <7, 38>,
	 <7, 39>,
	 <7, 40>,
	 <7, 77>,
	 <7, 68>,
	 <7, 67>,
	 <7, 70>,
	 <7, 80>,
	 <7, 60>,
	 <7, 61>,
	 <7, 73>,
	 <7, 74>,
	 <7, 75>,
	 <7, 78>,
	 <7, 79>,
	 <7, 76>,
	 <7, 69>,
	 <7, 43>,
	 <44, 41>,
	 <44, 49>,
	 <44, 10>,
	 <44, 11>,
	 <44, 50>,
	 <44, 12>,
	 <44, 13>,
	 <44, 14>,
	 <44, 15>,
	 <44, 16>,
	 <44, 17>,
	 <44, 18>,
	 <44, 51>,
	 <44, 52>,
	 <44, 53>,
	 <44, 19>,
	 <44, 20>,
	 <44, 21>,
	 <44, 33>,
	 <44, 34>,
	 <44, 35>,
	 <44, 36>,
	 <44, 37>,
	 <44, 59>,
	 <44, 56>,
	 <44, 57>,
	 <44, 58>,
	 <44, 71>,
	 <44, 72>,
	 <44, 38>,
	 <44, 39>,
	 <44, 40>,
	 <44, 77>,
	 <44, 68>,
	 <44, 67>,
	 <44, 70>,
	 <44, 80>,
	 <44, 60>,
	 <44, 61>,
	 <44, 73>,
	 <44, 74>,
	 <44, 75>,
	 <44, 78>,
	 <44, 79>,
	 <44, 76>,
	 <44, 69>,
	 <44, 43>,
	 <42, 41>,
	 <42, 49>,
	 <42, 10>,
	 <42, 11>,
	 <42, 50>,
	 <42, 12>,
	 <42, 13>,
	 <42, 14>,
	 <42, 15>,
	 <42, 16>,
	 <42, 17>,
	 <42, 18>,
	 <42, 51>,
	 <42, 52>,
	 <42, 53>,
	 <42, 19>,
	 <42, 20>,
	 <42, 21>,
	 <42, 33>,
	 <42, 34>,
	 <42, 35>,
	 <42, 36>,
	 <42, 37>,
	 <42, 59>,
	 <42, 57>,
	 <42, 58>,
	 <42, 71>,
	 <42, 72>,
	 <42, 39>,
	 <42, 40>,
	 <42, 77>,
	 <42, 68>,
	 <42, 67>,
	 <42, 70>,
	 <42, 80>,
	 <42, 60>,
	 <42, 61>,
	 <42, 73>,
	 <42, 74>,
	 <42, 75>,
	 <42, 78>,
	 <42, 79>,
	 <42, 76>,
	 <42, 69>,
	 <42, 43>,
	 <45, 41>,
	 <45, 49>,
	 <45, 10>,
	 <45, 11>,
	 <45, 50>,
	 <45, 12>,
	 <45, 13>,
	 <45, 14>,
	 <45, 15>,
	 <45, 16>,
	 <45, 17>,
	 <45, 18>,
	 <45, 51>,
	 <45, 52>,
	 <45, 53>,
	 <45, 19>,
	 <45, 20>,
	 <45, 21>,
	 <45, 33>,
	 <45, 34>,
	 <45, 35>,
	 <45, 36>,
	 <45, 37>,
	 <45, 59>,
	 <45, 58>,
	 <45, 71>,
	 <45, 72>,
	 <45, 40>,
	 <45, 77>,
	 <45, 68>,
	 <45, 67>,
	 <45, 70>,
	 <45, 80>,
	 <45, 60>,
	 <45, 61>,
	 <45, 73>,
	 <45, 74>,
	 <45, 75>,
	 <45, 78>,
	 <45, 79>,
	 <45, 76>,
	 <45, 69>,
	 <45, 43>,
	 <46, 41>,
	 <46, 49>,
	 <46, 10>,
	 <46, 11>,
	 <46, 50>,
	 <46, 12>,
	 <46, 13>,
	 <46, 14>,
	 <46, 15>,
	 <46, 16>,
	 <46, 17>,
	 <46, 18>,
	 <46, 51>,
	 <46, 52>,
	 <46, 53>,
	 <46, 19>,
	 <46, 20>,
	 <46, 21>,
	 <46, 34>,
	 <46, 35>,
	 <46, 36>,
	 <46, 37>,
	 <46, 59>,
	 <46, 71>,
	 <46, 72>,
	 <46, 40>,
	 <46, 77>,
	 <46, 68>,
	 <46, 67>,
	 <46, 70>,
	 <46, 80>,
	 <46, 60>,
	 <46, 61>,
	 <46, 73>,
	 <46, 74>,
	 <46, 75>,
	 <46, 78>,
	 <46, 79>,
	 <46, 76>,
	 <46, 69>,
	 <46, 43>,
	 <47, 41>,
	 <47, 49>,
	 <47, 10>,
	 <47, 11>,
	 <47, 50>,
	 <47, 12>,
	 <47, 13>,
	 <47, 14>,
	 <47, 15>,
	 <47, 16>,
	 <47, 17>,
	 <47, 18>,
	 <47, 51>,
	 <47, 52>,
	 <47, 53>,
	 <47, 19>,
	 <47, 20>,
	 <47, 21>,
	 <47, 35>,
	 <47, 36>,
	 <47, 37>,
	 <47, 59>,
	 <47, 71>,
	 <47, 72>,
	 <47, 40>,
	 <47, 77>,
	 <47, 68>,
	 <47, 67>,
	 <47, 70>,
	 <47, 80>,
	 <47, 60>,
	 <47, 61>,
	 <47, 73>,
	 <47, 74>,
	 <47, 75>,
	 <47, 78>,
	 <47, 79>,
	 <47, 76>,
	 <47, 69>,
	 <47, 43>,
	 <48, 41>,
	 <48, 49>,
	 <48, 10>,
	 <48, 11>,
	 <48, 50>,
	 <48, 12>,
	 <48, 13>,
	 <48, 14>,
	 <48, 15>,
	 <48, 16>,
	 <48, 17>,
	 <48, 18>,
	 <48, 51>,
	 <48, 52>,
	 <48, 53>,
	 <48, 19>,
	 <48, 20>,
	 <48, 21>,
	 <48, 36>,
	 <48, 37>,
	 <48, 59>,
	 <48, 72>,
	 <48, 40>,
	 <48, 77>,
	 <48, 68>,
	 <48, 67>,
	 <48, 70>,
	 <48, 80>,
	 <48, 60>,
	 <48, 61>,
	 <48, 73>,
	 <48, 74>,
	 <48, 75>,
	 <48, 78>,
	 <48, 79>,
	 <48, 76>,
	 <48, 69>,
	 <48, 43>,
	 <11, 41>,
	 <11, 10>,
	 <49, 41>,
	 <49, 10>,
	 <12, 41>,
	 <12, 49>,
	 <12, 10>,
	 <12, 11>,
	 <13, 41>,
	 <13, 49>,
	 <13, 10>,
	 <13, 11>,
	 <13, 50>,
	 <13, 12>,
	 <14, 41>,
	 <14, 49>,
	 <14, 10>,
	 <14, 11>,
	 <14, 50>,
	 <14, 12>,
	 <14, 13>,
	 <14, 51>,
	 <15, 41>,
	 <15, 49>,
	 <15, 10>,
	 <15, 11>,
	 <15, 50>,
	 <15, 12>,
	 <15, 13>,
	 <15, 14>,
	 <15, 51>,
	 <15, 52>,
	 <16, 41>,
	 <16, 49>,
	 <16, 10>,
	 <16, 11>,
	 <16, 50>,
	 <16, 12>,
	 <16, 13>,
	 <16, 14>,
	 <16, 15>,
	 <16, 51>,
	 <16, 52>,
	 <16, 53>,
	 <17, 41>,
	 <17, 49>,
	 <17, 10>,
	 <17, 11>,
	 <17, 50>,
	 <17, 12>,
	 <17, 13>,
	 <17, 14>,
	 <17, 15>,
	 <17, 16>,
	 <17, 51>,
	 <17, 52>,
	 <17, 53>,
	 <17, 19>,
	 <18, 41>,
	 <18, 49>,
	 <18, 10>,
	 <18, 11>,
	 <18, 50>,
	 <18, 12>,
	 <18, 13>,
	 <18, 14>,
	 <18, 15>,
	 <18, 16>,
	 <18, 17>,
	 <18, 51>,
	 <18, 52>,
	 <18, 53>,
	 <18, 19>,
	 <18, 20>,
	 <50, 41>,
	 <50, 49>,
	 <50, 10>,
	 <50, 11>,
	 <51, 41>,
	 <51, 49>,
	 <51, 10>,
	 <51, 11>,
	 <51, 50>,
	 <51, 12>,
	 <52, 41>,
	 <52, 49>,
	 <52, 10>,
	 <52, 11>,
	 <52, 50>,
	 <52, 12>,
	 <52, 13>,
	 <52, 51>,
	 <53, 41>,
	 <53, 49>,
	 <53, 10>,
	 <53, 11>,
	 <53, 50>,
	 <53, 12>,
	 <53, 13>,
	 <53, 14>,
	 <53, 51>,
	 <53, 52>,
	 <19, 41>,
	 <19, 49>,
	 <19, 10>,
	 <19, 11>,
	 <19, 50>,
	 <19, 12>,
	 <19, 13>,
	 <19, 14>,
	 <19, 15>,
	 <19, 51>,
	 <19, 52>,
	 <19, 53>,
	 <20, 41>,
	 <20, 49>,
	 <20, 10>,
	 <20, 11>,
	 <20, 50>,
	 <20, 12>,
	 <20, 13>,
	 <20, 14>,
	 <20, 15>,
	 <20, 16>,
	 <20, 51>,
	 <20, 52>,
	 <20, 53>,
	 <20, 19>,
	 <21, 41>,
	 <21, 49>,
	 <21, 10>,
	 <21, 11>,
	 <21, 50>,
	 <21, 12>,
	 <21, 13>,
	 <21, 14>,
	 <21, 15>,
	 <21, 16>,
	 <21, 17>,
	 <21, 51>,
	 <21, 52>,
	 <21, 53>,
	 <21, 19>,
	 <21, 20>,
	 <23, 62>,
	 <23, 24>,
	 <23, 25>,
	 <23, 26>,
	 <23, 27>,
	 <23, 28>,
	 <23, 65>,
	 <23, 66>,
	 <23, 29>,
	 <23, 30>,
	 <23, 80>,
	 <23, 61>,
	 <62, 24>,
	 <62, 25>,
	 <62, 26>,
	 <62, 27>,
	 <62, 28>,
	 <62, 66>,
	 <62, 29>,
	 <62, 30>,
	 <62, 80>,
	 <62, 61>,
	 <24, 25>,
	 <24, 26>,
	 <24, 27>,
	 <24, 28>,
	 <24, 29>,
	 <24, 30>,
	 <24, 80>,
	 <24, 61>,
	 <25, 26>,
	 <25, 27>,
	 <25, 28>,
	 <25, 30>,
	 <25, 80>,
	 <25, 61>,
	 <26, 27>,
	 <26, 28>,
	 <26, 80>,
	 <26, 61>,
	 <27, 28>,
	 <27, 80>,
	 <27, 60>,
	 <27, 61>,
	 <28, 80>,
	 <28, 60>,
	 <28, 61>,
	 <22, 23>,
	 <22, 62>,
	 <22, 24>,
	 <22, 25>,
	 <22, 26>,
	 <22, 27>,
	 <22, 28>,
	 <22, 64>,
	 <22, 63>,
	 <22, 65>,
	 <22, 66>,
	 <22, 29>,
	 <22, 30>,
	 <22, 32>,
	 <64, 23>,
	 <64, 62>,
	 <64, 24>,
	 <64, 25>,
	 <64, 26>,
	 <64, 27>,
	 <64, 28>,
	 <64, 63>,
	 <64, 65>,
	 <64, 66>,
	 <64, 29>,
	 <64, 30>,
	 <63, 62>,
	 <63, 24>,
	 <63, 25>,
	 <63, 26>,
	 <63, 27>,
	 <63, 28>,
	 <63, 65>,
	 <63, 66>,
	 <63, 29>,
	 <63, 30>,
	 <65, 24>,
	 <65, 25>,
	 <65, 26>,
	 <65, 27>,
	 <65, 28>,
	 <65, 66>,
	 <65, 29>,
	 <65, 30>,
	 <66, 25>,
	 <66, 26>,
	 <66, 27>,
	 <66, 28>,
	 <66, 29>,
	 <66, 30>,
	 <29, 26>,
	 <29, 27>,
	 <29, 28>,
	 <29, 30>,
	 <30, 27>,
	 <30, 28>,
	 <31, 23>,
	 <31, 62>,
	 <31, 24>,
	 <31, 25>,
	 <31, 26>,
	 <31, 27>,
	 <31, 28>,
	 <31, 64>,
	 <31, 63>,
	 <31, 65>,
	 <31, 66>,
	 <31, 29>,
	 <31, 30>,
	 <31, 32>,
	 <31, 80>,
	 <31, 61>,
	 <32, 23>,
	 <32, 62>,
	 <32, 24>,
	 <32, 25>,
	 <32, 26>,
	 <32, 27>,
	 <32, 28>,
	 <32, 63>,
	 <32, 65>,
	 <32, 66>,
	 <32, 29>,
	 <32, 30>,
	 <32, 80>,
	 <32, 61>,
	 <33, 10>,
	 <34, 41>,
	 <34, 10>,
	 <35, 41>,
	 <35, 10>,
	 <35, 11>,
	 <36, 41>,
	 <36, 49>,
	 <36, 10>,
	 <36, 11>,
	 <37, 41>,
	 <37, 49>,
	 <37, 10>,
	 <37, 11>,
	 <37, 12>,
	 <59, 41>,
	 <59, 49>,
	 <59, 10>,
	 <59, 11>,
	 <59, 50>,
	 <59, 12>,
	 <54, 10>,
	 <54, 33>,
	 <54, 38>,
	 <54, 39>,
	 <55, 41>,
	 <55, 10>,
	 <55, 33>,
	 <55, 34>,
	 <55, 38>,
	 <55, 39>,
	 <56, 41>,
	 <56, 10>,
	 <56, 11>,
	 <56, 33>,
	 <56, 34>,
	 <56, 35>,
	 <56, 39>,
	 <57, 41>,
	 <57, 49>,
	 <57, 10>,
	 <57, 11>,
	 <57, 33>,
	 <57, 34>,
	 <57, 35>,
	 <57, 36>,
	 <58, 41>,
	 <58, 49>,
	 <58, 10>,
	 <58, 11>,
	 <58, 12>,
	 <58, 34>,
	 <58, 35>,
	 <58, 36>,
	 <58, 37>,
	 <71, 41>,
	 <71, 49>,
	 <71, 10>,
	 <71, 11>,
	 <71, 50>,
	 <71, 12>,
	 <71, 35>,
	 <71, 36>,
	 <71, 37>,
	 <71, 59>,
	 <72, 41>,
	 <72, 49>,
	 <72, 10>,
	 <72, 11>,
	 <72, 50>,
	 <72, 12>,
	 <72, 13>,
	 <72, 36>,
	 <72, 37>,
	 <72, 59>,
	 <40, 77>,
	 <40, 69>,
	 <40, 43>,
	 <73, 77>,
	 <73, 68>,
	 <73, 69>,
	 <73, 43>,
	 <74, 77>,
	 <74, 68>,
	 <74, 67>,
	 <74, 43>,
	 <75, 77>,
	 <75, 68>,
	 <75, 67>,
	 <75, 70>,
	 <78, 68>,
	 <78, 67>,
	 <78, 70>,
	 <78, 80>,
	 <79, 67>,
	 <79, 70>,
	 <79, 80>,
	 <79, 60>,
	 <76, 70>,
	 <76, 80>,
	 <76, 60>,
	 <76, 61>,
	 }; 

SoftAtomicConstraints = {
	 <48, 2>,
	 <2, 3>,
	 <1, 4>,
	 <5, 6>,
	 <4, 7>,
	 <6, 8>,
	 <8, 9>,
	 <16, 19>,
	 <17, 20>,
	 <18, 21>,
	 <31, 22>,
	 <25, 29>,
	 <26, 30>,
	 <39, 33>,
	 <33, 34>,
	 <34, 35>,
	 <35, 36>,
	 <36, 37>,
	 <38, 39>,
	 <10, 41>,
	 <44, 42>,
	 <69, 43>,
	 <7, 44>,
	 <42, 45>,
	 <45, 46>,
	 <46, 47>,
	 <47, 48>,
	 <11, 49>,
	 <12, 50>,
	 <13, 51>,
	 <14, 52>,
	 <15, 53>,
	 <54, 55>,
	 <55, 56>,
	 <56, 57>,
	 <57, 58>,
	 <37, 59>,
	 <80, 60>,
	 <60, 61>,
	 <23, 63>,
	 <32, 64>,
	 <62, 65>,
	 <24, 66>,
	 <68, 67>,
	 <77, 68>,
	 <67, 70>,
	 <58, 71>,
	 <71, 72>,
	 <40, 73>,
	 <73, 74>,
	 <74, 75>,
	 <79, 76>,
	 <43, 77>,
	 <75, 78>,
	 <78, 79>,
	 <70, 80>,
	 }; 

DisjunctiveConstraints = {
	 <2, 48, 2, 3>,
	 <1, 14, 1, 54>,
	 <5, 41, 5, 1>,
	 <5, 14, 5, 54>,
	 <6, 5, 6, 8>,
	 <6, 44, 6, 4>,
	 <6, 55, 6, 15>,
	 <4, 1, 4, 7>,
	 <4, 55, 4, 15>,
	 <8, 6, 8, 9>,
	 <8, 47, 8, 7>,
	 <8, 56, 8, 16>,
	 <8, 38, 8, 78>,
	 <9, 44, 9, 4>,
	 <9, 57, 9, 17>,
	 <9, 39, 9, 79>,
	 <7, 4, 7, 44>,
	 <7, 56, 7, 16>,
	 <7, 38, 7, 78>,
	 <44, 7, 44, 42>,
	 <44, 33, 44, 73>,
	 <44, 57, 44, 17>,
	 <44, 39, 44, 79>,
	 <42, 44, 42, 45>,
	 <42, 33, 42, 73>,
	 <42, 34, 42, 74>,
	 <42, 58, 42, 18>,
	 <45, 42, 45, 46>,
	 <45, 34, 45, 74>,
	 <45, 35, 45, 75>,
	 <46, 45, 46, 47>,
	 <46, 35, 46, 75>,
	 <46, 59, 46, 19>,
	 <46, 71, 46, 31>,
	 <47, 46, 47, 48>,
	 <47, 36, 47, 76>,
	 <47, 37, 47, 77>,
	 <47, 59, 47, 19>,
	 <47, 72, 47, 32>,
	 <48, 47, 48, 2>,
	 <48, 37, 48, 77>,
	 <15, 10, 15, 50>,
	 <16, 10, 16, 50>,
	 <16, 11, 16, 51>,
	 <17, 10, 17, 50>,
	 <17, 11, 17, 51>,
	 <17, 12, 17, 52>,
	 <18, 10, 18, 50>,
	 <18, 11, 18, 51>,
	 <18, 12, 18, 52>,
	 <18, 13, 18, 53>,
	 <53, 41, 53, 1>,
	 <19, 41, 19, 1>,
	 <19, 49, 19, 9>,
	 <19, 14, 54, 19>,
	 <20, 41, 20, 1>,
	 <20, 49, 20, 9>,
	 <20, 14, 54, 20>,
	 <20, 15, 55, 20>,
	 <21, 41, 21, 1>,
	 <21, 49, 21, 9>,
	 <21, 14, 54, 21>,
	 <21, 15, 55, 21>,
	 <21, 16, 56, 21>,
	 <23, 68, 23, 28>,
	 <23, 67, 23, 27>,
	 <62, 68, 62, 28>,
	 <26, 61, 26, 21>,
	 <27, 61, 27, 21>,
	 <28, 61, 28, 21>,
	 <22, 27, 67, 22>,
	 <22, 28, 68, 22>,
	 <22, 70, 22, 30>,
	 <64, 27, 67, 64>,
	 <64, 28, 68, 64>,
	 <63, 27, 67, 63>,
	 <63, 28, 68, 63>,
	 <65, 27, 67, 65>,
	 <65, 28, 68, 65>,
	 <66, 27, 67, 66>,
	 <66, 28, 68, 66>,
	 <29, 27, 67, 29>,
	 <29, 28, 68, 29>,
	 <29, 40, 80, 29>,
	 <30, 28, 68, 30>,
	 <30, 40, 80, 30>,
	 <30, 69, 29, 30>,
	 <31, 26, 31, 66>,
	 <31, 68, 31, 28>,
	 <31, 67, 31, 27>,
	 <32, 68, 32, 28>,
	 <32, 67, 32, 27>,
	 <33, 39, 33, 34>,
	 <34, 33, 34, 35>,
	 <35, 34, 35, 36>,
	 <36, 35, 36, 37>,
	 <37, 36, 37, 59>,
	 <54, 38, 54, 78>,
	 <55, 54, 55, 56>,
	 <55, 39, 55, 79>,
	 <56, 33, 56, 73>,
	 <56, 55, 56, 57>,
	 <57, 34, 57, 74>,
	 <57, 56, 57, 58>,
	 <58, 35, 58, 75>,
	 <58, 57, 58, 71>,
	 <71, 58, 71, 72>,
	 <39, 38, 39, 33>,
	 <77, 43, 77, 68>,
	 <68, 77, 68, 67>,
	 <67, 68, 67, 70>,
	 <70, 67, 70, 80>,
	 <80, 70, 80, 60>,
	 <60, 80, 60, 61>,
	 <73, 40, 73, 74>,
	 <74, 73, 74, 75>,
	 <75, 74, 75, 78>,
	 <78, 75, 78, 79>,
	 <79, 78, 79, 76>,
	 <43, 69, 43, 77>,
	 }; 

DirectSuccessors = {
	1,
	4,
	5,
	6,
	7,
	8,
	9,
	44,
	54,
	33,
	34,
	35,
	55,
	56,
	57,
	58,
	38,
	39,
	 }; 

